; benchmark generated from python API
(set-info :status unknown)
(declare-datatypes ((RealState 0)) (((RMk1 (rval1 Real)) (RMk2 (rval2 Real)))))
 (assert
 (forall ((?x1 Real) )(exists ((?x2_st RealState) (val!460 Real) )(forall ((?x3 Real) )(exists ((?x4_st RealState) (val!461 Real) )(let ((?x12491 (rval2 ?x4_st)))
 (let ((?x20148 (* 57.0 ?x12491)))
 (let ((?x331 (+ (+ (* 21.0 ?x1) (* (- 8.0) (rval2 ?x2_st))) (* (- 53.0) ?x3))))
 (let ((?x6448 (+ (+ (* 80.0 ?x1) (* (- 95.0) (rval2 ?x2_st))) (* (- 98.0) ?x3))))
 (let (($x12676 (and (= (+ ?x6448 (* (- 16.0) ?x12491)) 11.0) (<= (+ ?x331 ?x20148) 5.0))))
 (let ((?x11491 (- 66.0)))
 (let ((?x14480 (- 14.0)))
 (let ((?x3182 (* ?x14480 ?x3)))
 (let ((?x5841 (+ (+ (+ (* 65.0 ?x1) (* (- 77.0) (rval2 ?x2_st))) ?x3182) (* (- 85.0) ?x12491))))
 (let ((?x3297 (+ (+ (* 8.0 ?x1) (* (- 71.0) (rval2 ?x2_st))) (* (- 12.0) ?x3))))
 (let (($x12978 (or (not (= (+ ?x3297 (* (- 46.0) ?x12491)) ?x11491)) (not (= ?x5841 ?x11491)))))
 (let ((?x16333 (+ (+ (* (- 7.0) ?x1) (* (- 61.0) (rval2 ?x2_st))) (* (- 13.0) ?x3))))
 (let (($x8745 (and (and (= ?x16333 51.0) $x12978) (and (not (= (+ (* 33.0 ?x1) (* 74.0 ?x3)) (- 85.0))) $x12676))))
 (let (($x16436 (> (+ (+ (* (- 69.0) ?x1) (* 23.0 (rval2 ?x2_st))) (* 32.0 ?x12491)) 0.0)))
 (let (($x6494 (or $x16436 (>= (+ (* 46.0 ?x1) (* (- 63.0) (rval2 ?x2_st))) (- 35.0)))))
 (let (($x6840 (not (= (+ (* (- 21.0) ?x1) (* (- 95.0) (rval2 ?x2_st))) 3.0))))
 (let (($x4816 (and (not (= (+ (* (- 33.0) ?x1) (* 75.0 ?x12491)) (- 93.0))) $x6840)))
 (let ((?x22785 (+ (+ (+ (* (- 80.0) ?x1) (* 80.0 (rval2 ?x2_st))) (* 19.0 ?x3)) (* (- 55.0) ?x12491))))
 (let ((?x12930 (+ (+ (* (- 24.0) ?x1) (* ?x14480 (rval2 ?x2_st))) (* (- 79.0) ?x3))))
 (let (($x9586 (< (+ (+ (* (- 30.0) (rval2 ?x2_st)) (* 36.0 ?x3)) (* 32.0 ?x12491)) 64.0)))
 (let (($x14061 (and (and (or $x9586 (or (< ?x12930 0.0) (= ?x22785 0.0))) (or $x4816 $x6494)) $x8745)))
 (let (($x636 (not (= ?x4_st (RMk1 val!461)))))
 (let (($x12990 (not (= ?x2_st (RMk1 val!460)))))
 (and $x12990 $x636 $x14061)))))))))))))))))))))))))
 )
 )
 )
 )
(check-sat)
